(declare-fun var0 () String)
(assert (str.in.re var0 (re.++ (re.union (re.union (str.to.re "II") (str.to.re "JJ")) (re.union (str.to.re "KK") (str.to.re "L"))) (re.++ (re.+ (re.union (str.to.re "GG") (str.to.re "HHH"))) (re.++ (re.* (re.* (str.to.re "FFF"))) (re.++ (re.union (re.+ (str.to.re "DDD")) (re.+ (str.to.re "EEE"))) (re.++ (re.+ (re.union (str.to.re "BBB") (str.to.re "CCC"))) (re.++ (re.* (re.+ (str.to.re "A"))) (re.++ (re.union (re.* (str.to.re "yyy")) (re.+ (str.to.re "zz"))) (re.++ (re.+ (re.+ (str.to.re "xxx"))) (re.++ (re.union (re.union (str.to.re "u") (str.to.re "vv")) (re.+ (str.to.re "www"))) (re.++ (re.+ (re.* (str.to.re "ttt"))) (re.++ (re.* (re.+ (str.to.re "s"))) (re.++ (re.union (re.+ (str.to.re "q")) (re.+ (str.to.re "r"))) (re.++ (re.* (re.+ (str.to.re "ppp"))) (re.++ (re.union (re.+ (str.to.re "nn")) (re.* (str.to.re "ooo"))) (re.++ (re.+ (re.* (str.to.re "m"))) (re.++ (re.union (re.+ (str.to.re "k")) (re.* (str.to.re "ll"))) (re.++ (re.union (re.union (str.to.re "hhh") (str.to.re "ii")) (re.* (str.to.re "j"))) (re.++ (re.* (re.union (str.to.re "fff") (str.to.re "gg"))) (re.++ (re.+ (re.* (str.to.re "eee"))) (re.++ (re.+ (re.* (str.to.re "dd"))) (re.++ (re.+ (re.union (str.to.re "bb") (str.to.re "cc"))) (re.++ (re.union (re.union (str.to.re "888") (str.to.re "9")) (re.+ (str.to.re "aaa"))) (re.++ (re.* (re.union (str.to.re "6") (str.to.re "777"))) (re.++ (re.union (re.+ (str.to.re "333")) (re.union (str.to.re "4") (str.to.re "555"))) (re.++ (re.+ (re.union (str.to.re "111") (str.to.re "222"))) (re.++ (re.+ (re.+ (str.to.re "000"))) (re.++ (re.* (re.union (str.to.re "}}}") (str.to.re "~~~"))) (re.++ (re.+ (re.+ (str.to.re "|"))) (re.++ (re.union (re.union (str.to.re "___") (str.to.re "```")) (re.* (str.to.re "{{{"))) (re.++ (re.* (re.+ (str.to.re "^"))) (re.++ (re.+ (re.+ (str.to.re "]]"))) (re.++ (re.+ (re.* (str.to.re "\\"))) (re.++ (re.* (re.+ (str.to.re "["))) (re.++ (re.* (re.union (str.to.re "???") (str.to.re "@"))) (re.++ (re.+ (re.* (str.to.re ">>>"))) (re.++ (re.union (re.+ (str.to.re "<<")) (re.+ (str.to.re "==="))) (re.++ (re.union (re.+ (str.to.re ":::")) (re.* (str.to.re ";;"))) (re.++ (re.* (re.+ (str.to.re "///"))) (re.++ (re.* (re.+ (str.to.re ".."))) (re.++ (re.union (re.* (str.to.re ",,,")) (re.+ (str.to.re "--"))) (re.++ (re.* (re.union (str.to.re "***") (str.to.re "++"))) (re.++ (re.union (re.+ (str.to.re "''")) (re.union (str.to.re "(") (str.to.re ")))"))) (re.++ (re.* (re.union (str.to.re "%%%") (str.to.re "&"))) (re.++ (re.union (re.* (str.to.re """")) (re.union (str.to.re "###") (str.to.re "$$"))) (re.++ (re.* (re.+ (str.to.re "!"))) (re.++ (re.* (re.* (str.to.re "ZZ"))) (re.++ (re.+ (re.union (str.to.re "XXX") (str.to.re "Y"))) (re.++ (re.union (re.+ (str.to.re "VV")) (re.+ (str.to.re "WW"))) (re.++ (re.* (re.* (str.to.re "UU"))) (re.++ (re.union (re.* (str.to.re "SS")) (re.+ (str.to.re "T"))) (re.++ (re.+ (re.* (str.to.re "R"))) (re.++ (re.* (re.+ (str.to.re "QQQ"))) (re.++ (re.+ (re.union (str.to.re "OO") (str.to.re "PPP"))) (re.++ (re.+ (re.* (str.to.re "NNN"))) (re.++ (re.union (re.union (str.to.re "JJJ") (str.to.re "KKK")) (re.union (str.to.re "LL") (str.to.re "M"))) (re.++ (re.+ (re.* (str.to.re "I"))) (re.++ (re.+ (re.union (str.to.re "GGG") (str.to.re "HHH"))) (re.++ (re.* (re.+ (str.to.re "F"))) (re.++ (re.* (re.* (str.to.re "E"))) (re.++ (re.union (re.union (str.to.re "A") (str.to.re "B")) (re.union (str.to.re "CC") (str.to.re "D"))) (re.++ (re.union (re.+ (str.to.re "x")) (re.union (str.to.re "y") (str.to.re "zz"))) (re.++ (re.union (re.+ (str.to.re "uu")) (re.union (str.to.re "vvv") (str.to.re "ww"))) (re.++ (re.+ (re.* (str.to.re "ttt"))) (re.++ (re.* (re.union (str.to.re "rrr") (str.to.re "s"))) (re.++ (re.union (re.union (str.to.re "o") (str.to.re "pp")) (re.* (str.to.re "qqq"))) (re.++ (re.+ (re.* (str.to.re "n"))) (re.++ (re.* (re.+ (str.to.re "mmm"))) (re.++ (re.+ (re.* (str.to.re "lll"))) (re.++ (re.* (re.union (str.to.re "j") (str.to.re "kk"))) (re.++ (re.* (re.+ (str.to.re "iii"))) (re.++ (re.* (re.union (str.to.re "g") (str.to.re "hhh"))) (re.++ (re.* (re.* (str.to.re "f"))) (re.++ (re.+ (re.union (str.to.re "ddd") (str.to.re "ee"))) (re.++ (re.+ (re.* (str.to.re "c"))) (re.++ (re.+ (re.+ (str.to.re "b"))) (re.++ (re.union (re.* (str.to.re "9")) (re.+ (str.to.re "aa"))) (re.++ (re.+ (re.union (str.to.re "77") (str.to.re "8"))) (re.++ (re.union (re.union (str.to.re "33") (str.to.re "4")) (re.union (str.to.re "555") (str.to.re "66"))) (re.++ (re.* (re.* (str.to.re "2"))) (re.++ (re.* (re.+ (str.to.re "111"))) (re.* (re.+ (str.to.re "000")))))))))))))))))))))))))))))))))))))))))))))))))))))))))))))))))))))))))))))))))))))
(assert (not (str.in.re var0 (re.++ (re.union (re.+ (str.to.re "MMM")) (re.* (str.to.re "N"))) (re.++ (re.+ (re.union (str.to.re "KK") (str.to.re "L"))) (re.++ (re.+ (re.* (str.to.re "J"))) (re.++ (re.+ (re.+ (str.to.re "I"))) (re.++ (re.+ (re.+ (str.to.re "HHH"))) (re.++ (re.+ (re.union (str.to.re "FF") (str.to.re "GG"))) (re.++ (re.union (re.+ (str.to.re "CC")) (re.union (str.to.re "DDD") (str.to.re "EE"))) (re.++ (re.+ (re.+ (str.to.re "BBB"))) (re.++ (re.* (re.* (str.to.re "AA"))) (re.++ (re.+ (re.union (str.to.re "yyy") (str.to.re "zz"))) (re.++ (re.union (re.+ (str.to.re "vvv")) (re.union (str.to.re "w") (str.to.re "x"))) (re.++ (re.+ (re.union (str.to.re "t") (str.to.re "uuu"))) (re.++ (re.union (re.+ (str.to.re "rr")) (re.+ (str.to.re "s"))) (re.++ (re.+ (re.+ (str.to.re "qq"))) (re.++ (re.union (re.+ (str.to.re "o")) (re.+ (str.to.re "p"))) (re.++ (re.* (re.+ (str.to.re "nnn"))) (re.++ (re.* (re.* (str.to.re "m"))) (re.++ (re.* (re.* (str.to.re "l"))) (re.++ (re.* (re.* (str.to.re "kk"))) (re.++ (re.* (re.* (str.to.re "jjj"))) (re.++ (re.+ (re.union (str.to.re "hhh") (str.to.re "i"))) (re.++ (re.* (re.+ (str.to.re "ggg"))) (re.++ (re.union (re.+ (str.to.re "eee")) (re.+ (str.to.re "f"))) (re.++ (re.* (re.* (str.to.re "ddd"))) (re.++ (re.union (re.union (str.to.re "aaa") (str.to.re "b")) (re.+ (str.to.re "ccc"))) (re.++ (re.union (re.union (str.to.re "66") (str.to.re "77")) (re.union (str.to.re "888") (str.to.re "99"))) (re.++ (re.union (re.* (str.to.re "444")) (re.+ (str.to.re "5"))) (re.++ (re.* (re.+ (str.to.re "33"))) (re.++ (re.union (re.+ (str.to.re "111")) (re.* (str.to.re "222"))) (re.++ (re.* (re.union (str.to.re "~") (str.to.re "00"))) (re.++ (re.* (re.+ (str.to.re "}"))) (re.++ (re.* (re.+ (str.to.re "||"))) (re.++ (re.union (re.union (str.to.re "^") (str.to.re "_")) (re.union (str.to.re "```") (str.to.re "{{{"))) (re.++ (re.* (re.+ (str.to.re "]]]"))) (re.++ (re.union (re.union (str.to.re "@") (str.to.re "[")) (re.+ (str.to.re "\\\\"))) (re.++ (re.union (re.+ (str.to.re "===")) (re.union (str.to.re ">>>") (str.to.re "?"))) (re.++ (re.* (re.union (str.to.re ";") (str.to.re "<<"))) (re.++ (re.union (re.+ (str.to.re "/")) (re.+ (str.to.re "::"))) (re.++ (re.+ (re.+ (str.to.re ".."))) (re.++ (re.union (re.+ (str.to.re ",,")) (re.* (str.to.re "---"))) (re.++ (re.union (re.union (str.to.re "(((") (str.to.re ")))")) (re.union (str.to.re "***") (str.to.re "+++"))) (re.++ (re.union (re.union (str.to.re "%%") (str.to.re "&&")) (re.* (str.to.re "'"))) (re.++ (re.union (re.* (str.to.re "###")) (re.* (str.to.re "$"))) (re.++ (re.* (re.+ (str.to.re """"))) (re.++ (re.* (re.union (str.to.re "ZZ") (str.to.re "!"))) (re.++ (re.+ (re.* (str.to.re "Y"))) (re.++ (re.union (re.union (str.to.re "U") (str.to.re "VV")) (re.union (str.to.re "W") (str.to.re "X"))) (re.++ (re.union (re.+ (str.to.re "SSS")) (re.+ (str.to.re "TT"))) (re.++ (re.union (re.+ (str.to.re "PPP")) (re.union (str.to.re "QQ") (str.to.re "R"))) (re.++ (re.* (re.union (str.to.re "N") (str.to.re "OO"))) (re.++ (re.* (re.* (str.to.re "M"))) (re.++ (re.+ (re.+ (str.to.re "L"))) (re.++ (re.* (re.+ (str.to.re "KK"))) (re.++ (re.+ (re.* (str.to.re "JJ"))) (re.++ (re.* (re.+ (str.to.re "I"))) (re.++ (re.+ (re.union (str.to.re "G") (str.to.re "HHH"))) (re.++ (re.* (re.+ (str.to.re "FFF"))) (re.++ (re.union (re.* (str.to.re "D")) (re.+ (str.to.re "EEE"))) (re.++ (re.* (re.union (str.to.re "BBB") (str.to.re "C"))) (re.++ (re.* (re.+ (str.to.re "A"))) (re.++ (re.union (re.+ (str.to.re "yy")) (re.* (str.to.re "zzz"))) (re.++ (re.+ (re.* (str.to.re "x"))) (re.++ (re.* (re.union (str.to.re "vv") (str.to.re "ww"))) (re.++ (re.* (re.+ (str.to.re "uuu"))) (re.++ (re.* (re.* (str.to.re "ttt"))) (re.++ (re.union (re.union (str.to.re "q") (str.to.re "rrr")) (re.* (str.to.re "ss"))) (re.++ (re.* (re.+ (str.to.re "pp"))) (re.++ (re.union (re.* (str.to.re "n")) (re.+ (str.to.re "oo"))) (re.++ (re.+ (re.union (str.to.re "l") (str.to.re "mm"))) (re.++ (re.* (re.union (str.to.re "jj") (str.to.re "k"))) (re.++ (re.union (re.+ (str.to.re "g")) (re.union (str.to.re "hh") (str.to.re "ii"))) (re.++ (re.union (re.union (str.to.re "ddd") (str.to.re "ee")) (re.* (str.to.re "fff"))) (re.++ (re.* (re.+ (str.to.re "ccc"))) (re.++ (re.+ (re.union (str.to.re "aa") (str.to.re "bbb"))) (re.++ (re.union (re.union (str.to.re "77") (str.to.re "88")) (re.+ (str.to.re "99"))) (re.++ (re.* (re.+ (str.to.re "66"))) (re.++ (re.+ (re.* (str.to.re "55"))) (re.++ (re.+ (re.+ (str.to.re "44"))) (re.++ (re.+ (re.union (str.to.re "2") (str.to.re "3"))) (re.++ (re.+ (re.+ (str.to.re "111"))) (re.+ (re.+ (str.to.re "00"))))))))))))))))))))))))))))))))))))))))))))))))))))))))))))))))))))))))))))))))))))))
(check-sat)